SimulationType                MonteCarlo
NumberOfCycles                10000
NumberOfInitializationCycles  1000
PrintEvery                    100
RestartFile                   no

Forcefield                    GarciaPerez2006ForceField
UseChargesFromCIFFile         no
ChargeFromChargeEquilibration no

Framework 0
FrameworkName                 YINDOQ_clean
UnitCells                     2  2  2
ExternalTemperature           298.0
ExternalPressure              101325

Component 0 MoleculeName             CO2
            MoleculeDefinition       ExampleDefinitions
            FugacityCoefficient      1.0
            TranslationProbability   0.5
            RotationProbability      0.5
            ReinsertionProbability   0.5
            SwapProbability          0.5
            CreateNumberOfMolecules  0